#graphene model based on paramters in IJNME paper by JS Chen-2013:96:599-627

units metal

read_data       data.graphene_rerun
pair_style	rebo
pair_coeff	* * ../CH.rebo C

fix 2 all rob 200 5 rob.rebo_rerun # generate rob during simulation run

rerun dump.graphene dump x y z
